{'code': [14, 2, 5, 10, 4, 8, 0, 9, 13, 13, 11, 17, 6, 14, 6, 17, 10, 6, 13, 8, 11, 18, 4, 6, 7, 6, 
15, 11, 17, 7, 5, 1, 4, 11, 7, 6, 18, 1, 3, 16, 19, 17, 5, 13, 18, 4, 2, 9, 19, 15, 15, 1, 19, 15, 1
0, 5, 19, 0, 14, 3, 6, 1, 3, 9, 12, 6, 16, 11, 1, 7, 14, 0, 13, 9, 4, 10, 10, 9, 6, 1, 12, 16, 0, 6,
 12, 4, 6, 4, 16, 13, 6, 13, 3, 8, 7, 4, 5, 16, 11, 12, 4, 1, 15, 14, 18, 16, 10, 7, 11, 0, 7, 3, 1,
 18, 9, 2, 0, 16, 5, 12, 19, 14, 12, 14, 17, 3, 16, 13, 8, 1, 3, 9, 9, 5, 19, 17, 7, 18, 16, 19, 14,
 8, 7, 12, 0, 14, 1, 16, 3, 16, 11, 12, 2, 2, 7, 18, 19, 4, 3, 14, 1, 10, 10, 18, 9, 0, 19, 18, 0, 1
9, 17, 18, 9, 5, 2, 5, 11, 2, 14, 2, 8, 2, 5, 1, 9, 15, 12, 14, 15, 11, 15, 8, 13, 7, 4, 12, 7, 10, 
0, 0, 16, 19, 15, 15, 12, 5, 19, 7, 8, 18, 6, 4, 6, 2, 8, 8, 0, 19, 15, 17, 4, 15, 2, 3, 3, 15, 16, 
8, 17, 9, 13, 10, 17, 4, 11, 1, 18, 15, 18, 17], 'route': None, 'mac': [[1, 7, 7, 0, 1, 8, 2, 0, 8, 
3, 1, 6], [7, 4, 1, 4, 2, 5, 6, 0, 6, 0, 0, 3, 6], [6, 4, 9, 0, 8, 3, 0, 0, 4, 2, 2], [9, 0, 0, 7, 3
, 7, 3, 4, 2, 6, 0], [7, 3, 4, 4, 6, 9, 6, 7, 4, 1, 6, 4, 5, 4], [1, 9, 0, 2, 4, 5, 7, 7, 1, 6, 0], 
[7, 7, 7, 3, 0, 1, 1, 4, 3, 0, 1, 6, 3, 9], [0, 4, 4, 6, 8, 1, 5, 1, 1, 8, 1, 3, 4], [7, 1, 0, 3, 4,
 6, 5, 8, 8, 1, 4], [3, 8, 2, 1, 8, 6, 4, 2, 1, 2, 5, 0], [8, 4, 5, 3, 0, 4, 6, 2, 0, 3], [9, 0, 3, 
8, 6, 0, 1, 7, 3, 4, 9], [1, 2, 8, 4, 9, 2, 0, 7, 0, 0, 6], [4, 0, 1, 0, 1, 0, 3, 3, 6, 2], [0, 3, 6
, 5, 4, 8, 1, 9, 3, 2, 1, 6], [7, 3, 2, 8, 7, 5, 6, 9, 5, 1, 3, 4, 0, 9], [5, 8, 6, 7, 4, 4, 0, 6, 1
, 1, 3, 2, 0], [5, 8, 4, 4, 2, 4, 8, 1, 1, 7, 5], [2, 1, 6, 1, 2, 0, 2, 9, 4, 4, 1, 6, 4], [3, 6, 6,
 2, 4, 8, 4, 0, 7, 8, 5, 2, 1]], 'wok': None}
